1138.0 13489.0 3313.0 
1138.0 13485.0 3325.0 
1138.0 13485.0 3325.0 
1184.0 13128.0 3181.0 
1178.0 13166.0 3408.0 
1212.0 13034.0 3020.0 
1218.0 12998.0 2973.0 
1206.0 13141.0 3011.0 
1186.0 13003.0 3070.0 
1168.0 13225.0 2893.0 
1153.0 13283.0 3109.0 
1203.0 13048.0 3030.0 
1184.0 13128.0 3181.0 
1153.0 13264.0 3242.0 
1184.0 13124.0 3276.0 
1138.0 13489.0 3313.0 
1184.0 13128.0 3181.0 
1203.0 13048.0 3030.0 
1268.0 13311.0 2765.0 
1203.0 13048.0 3030.0 
1184.0 13128.0 3181.0 
1138.0 13221.0 3389.0 
1223.0 13107.0 2810.0 
